% File represents an instance of a Composite Structure problem to be solved by a CP framework
% Created on 2025-03-25 14:06:11.934
T = 44;
n = 16;
m = 24;
edges = [(2, 1),
(5, 6),
(9, 10),
(14, 13),
(3, 2),
(7, 6),
(11, 10),
(15, 14),
(4, 3),
(8, 7),
(11, 12),
(15, 16),
(5, 1),
(5, 9),
(9, 13),
(2, 6),
(6, 10),
(10, 14),
(3, 7),
(11, 7),
(11, 15),
(8, 4),
(8, 12),
(12, 16)];
counts = [|2, 8, 6, 14,
|2, 12, 6, 14,
|2, 14, 6, 16,
|2, 16, 6, 18,
|2, 12, 6, 20,
|2, 12, 6, 12,
|2, 12, 6, 16,
|2, 18, 6, 18,
|2, 12, 6, 12,
|2, 12, 4, 12,
|2, 14, 6, 16,
|2, 12, 6, 14,
|2, 10, 2, 10,
|2, 12, 2, 10,
|2, 14, 2, 14,
|2, 10, 2, 14|];
